instances/p2/p2_10_13-2.txt
{
	"num_strings": 10,
	"alphabet": "ACGT",
	"strings": [
		"CGCGCAATG",
		"GAGGTCTGAC",
		"",
		"GCGTACCATTTCT",
		"CACATA",
		"CCATCACTCTG",
		"GGATTATCAA",
		"TGGTACCATC",
		"CTTTCCGGCC",
		"CGCCTCGAA"
	],
	"str_length":[9,10,0,13,6,11,10,10,10,9]
}